(declare-const a Real)
(declare-const b Real)
(declare-const c Real)
(assert (= (+ a b c) 3))
(assert (> a 0))
(assert (> b 0))
(assert (> c 0))
(assert (not (<= (+ (* -2 a (pow b 8)) (* -2 b (pow c 8)) (* -2 c (pow a 8)) (* 2 (pow a 5) (pow b 2) (pow c 2)) (* a c (pow b 5) (+ (pow a 2) (pow c 2))) (* 8 (pow a 3) (pow b 3) (pow c 15) (pow (+ (* a (pow c 5)) (* b (pow c 5))) -2))) 0)))
(check-sat)
(get-model)
(exit)